\ This file has been generated by DOcplex
\ ENCODING=ISO-8859-1
\Problem name: Orandom1042_6.lp

Minimize
 obj: - 32.000000504269 x0 - 16.000000252135 x1 - 8.000000126067 x2
      - 32.000000504269 x3 - 16.000000252135 x4 - 8.000000126067 x5 + [
      16.000000288154 x0^2 + 16.000000288154 x0*x1 + 8.000000144077 x0*x2
      + 32.000000576308 x0*x3 + 16.000000288154 x0*x4 + 8.000000144077 x0*x5
      + 4.000000072038 x1^2 + 4.000000072038 x1*x2 + 16.000000288154 x1*x3
      + 8.000000144077 x1*x4 + 4.000000072038 x1*x5 + 1.000000018010 x2^2
      + 8.000000144077 x2*x3 + 4.000000072038 x2*x4 + 2.000000036019 x2*x5
      + 48.000000288154 x3^2 + 48.000000288154 x3*x4 + 24.000000144077 x3*x5
      + 12.000000072038 x4^2 + 12.000000072038 x4*x5 + 3.000000018010 x5^2 ]/2 +
      24.500000441236
Subject To

Bounds
 0 <= x0 <= 1
 0 <= x1 <= 1
 0 <= x2 <= 1
 0 <= x3 <= 1
 0 <= x4 <= 1
 0 <= x5 <= 1

Binaries
 x0 x1 x2 x3 x4 x5
End
